%BLOCK LATTICE_CART
ang    # angstrom units
  26.343000000000    0.000000000000     0.000000000000   
  0.000000000000     26.343000000000    0.000000000000   
  0.000000000000     0.000000000000     26.343000000000  
%ENDBLOCK LATTICE_CART

%BLOCK POSITIONS_FRAC
Cu     0.142650000000     0.142650000000     0.000000000000   
O      0.158300000000     0.121550000000     0.473900000000   
C      0.148400000000     0.101600000000     0.465650000000   
C      0.161000000000     0.089000000000     0.443500000000   
C      0.182750000000     0.099700000000     0.432750000000   
H      0.190100000000     0.114000000000     0.440100000000   
Cu     0.357350000000     0.142650000000     0.000000000000   
O      0.378450000000     0.158300000000     0.473900000000   
C      0.398400000000     0.148400000000     0.465650000000   
C      0.411000000000     0.161000000000     0.443500000000   
C      0.400300000000     0.182750000000     0.432750000000   
H      0.386000000000     0.190100000000     0.440100000000   
Cu     0.357350000000     0.357350000000     0.000000000000   
O      0.341700000000     0.378450000000     0.473900000000   
C      0.351600000000     0.398400000000     0.465650000000   
C      0.339000000000     0.411000000000     0.443500000000   
C      0.317250000000     0.400300000000     0.432750000000   
H      0.309900000000     0.386000000000     0.440100000000   
Cu     0.142650000000     0.357350000000     0.000000000000   
O      0.121550000000     0.341700000000     0.473900000000   
C      0.101600000000     0.351600000000     0.465650000000   
C      0.089000000000     0.339000000000     0.443500000000   
C      0.099700000000     0.317250000000     0.432750000000   
H      0.114000000000     0.309900000000     0.440100000000   
O      0.158300000000     0.378450000000     0.026100000000   
C      0.148400000000     0.398400000000     0.034350000000   
C      0.161000000000     0.411000000000     0.056500000000   
C      0.182750000000     0.400300000000     0.067250000000   
H      0.190100000000     0.386000000000     0.059900000000   
O      0.121550000000     0.158300000000     0.026100000000   
C      0.101600000000     0.148400000000     0.034350000000   
C      0.089000000000     0.161000000000     0.056500000000   
C      0.099700000000     0.182750000000     0.067250000000   
H      0.114000000000     0.190100000000     0.059900000000   
O      0.341700000000     0.121550000000     0.026100000000   
C      0.351600000000     0.101600000000     0.034350000000   
C      0.339000000000     0.089000000000     0.056500000000   
C      0.317250000000     0.099700000000     0.067250000000   
H      0.309900000000     0.114000000000     0.059900000000   
O      0.378450000000     0.341700000000     0.026100000000   
C      0.398400000000     0.351600000000     0.034350000000   
C      0.411000000000     0.339000000000     0.056500000000   
C      0.400300000000     0.317250000000     0.067250000000   
H      0.386000000000     0.309900000000     0.059900000000   
Cu     0.000000000000     0.142650000000     0.142650000000   
O      0.473900000000     0.158300000000     0.121550000000   
C      0.465650000000     0.148400000000     0.101600000000   
C      0.443500000000     0.161000000000     0.089000000000   
C      0.432750000000     0.182750000000     0.099700000000   
H      0.440100000000     0.190100000000     0.114000000000   
Cu     0.357350000000     0.000000000000     0.142650000000   
O      0.341700000000     0.473900000000     0.121550000000   
C      0.351600000000     0.465650000000     0.101600000000   
C      0.339000000000     0.443500000000     0.089000000000   
C      0.317250000000     0.432750000000     0.099700000000   
H      0.309900000000     0.440100000000     0.114000000000   
Cu     0.000000000000     0.357350000000     0.142650000000   
O      0.026100000000     0.341700000000     0.121550000000   
C      0.034350000000     0.351600000000     0.101600000000   
C      0.056500000000     0.339000000000     0.089000000000   
C      0.067250000000     0.317250000000     0.099700000000   
H      0.059900000000     0.309900000000     0.114000000000   
Cu     0.142650000000     0.000000000000     0.142650000000   
O      0.158300000000     0.026100000000     0.121550000000   
C      0.148400000000     0.034350000000     0.101600000000   
C      0.161000000000     0.056500000000     0.089000000000   
C      0.182750000000     0.067250000000     0.099700000000   
H      0.190100000000     0.059900000000     0.114000000000   
Cu     0.000000000000     0.357350000000     0.357350000000   
O      0.473900000000     0.341700000000     0.378450000000   
C      0.465650000000     0.351600000000     0.398400000000   
C      0.443500000000     0.339000000000     0.411000000000   
C      0.432750000000     0.317250000000     0.400300000000   
H      0.440100000000     0.309900000000     0.386000000000   
Cu     0.142650000000     0.000000000000     0.357350000000   
O      0.158300000000     0.473900000000     0.378450000000   
C      0.148400000000     0.465650000000     0.398400000000   
C      0.161000000000     0.443500000000     0.411000000000   
C      0.182750000000     0.432750000000     0.400300000000   
H      0.190100000000     0.440100000000     0.386000000000   
Cu     0.000000000000     0.142650000000     0.357350000000   
O      0.026100000000     0.158300000000     0.378450000000   
C      0.034350000000     0.148400000000     0.398400000000   
C      0.056500000000     0.161000000000     0.411000000000   
C      0.067250000000     0.182750000000     0.400300000000   
H      0.059900000000     0.190100000000     0.386000000000   
Cu     0.357350000000     0.000000000000     0.357350000000   
O      0.341700000000     0.026100000000     0.378450000000   
C      0.351600000000     0.034350000000     0.398400000000   
C      0.339000000000     0.056500000000     0.411000000000   
C      0.317250000000     0.067250000000     0.400300000000   
H      0.309900000000     0.059900000000     0.386000000000   
O      0.121550000000     0.473900000000     0.158300000000   
C      0.101600000000     0.465650000000     0.148400000000   
C      0.089000000000     0.443500000000     0.161000000000   
C      0.099700000000     0.432750000000     0.182750000000   
H      0.114000000000     0.440100000000     0.190100000000   
O      0.121550000000     0.026100000000     0.341700000000   
C      0.101600000000     0.034350000000     0.351600000000   
C      0.089000000000     0.056500000000     0.339000000000   
C      0.099700000000     0.067250000000     0.317250000000   
H      0.114000000000     0.059900000000     0.309900000000   
O      0.473900000000     0.121550000000     0.341700000000   
C      0.465650000000     0.101600000000     0.351600000000   
C      0.443500000000     0.089000000000     0.339000000000   
C      0.432750000000     0.099700000000     0.317250000000   
H      0.440100000000     0.114000000000     0.309900000000   
O      0.378450000000     0.473900000000     0.341700000000   
C      0.398400000000     0.465650000000     0.351600000000   
C      0.411000000000     0.443500000000     0.339000000000   
C      0.400300000000     0.432750000000     0.317250000000   
H      0.386000000000     0.440100000000     0.309900000000   
O      0.026100000000     0.378450000000     0.341700000000   
C      0.034350000000     0.398400000000     0.351600000000   
C      0.056500000000     0.411000000000     0.339000000000   
C      0.067250000000     0.400300000000     0.317250000000   
H      0.059900000000     0.386000000000     0.309900000000   
O      0.378450000000     0.026100000000     0.158300000000   
C      0.398400000000     0.034350000000     0.148400000000   
C      0.411000000000     0.056500000000     0.161000000000   
C      0.400300000000     0.067250000000     0.182750000000   
H      0.386000000000     0.059900000000     0.190100000000   
O      0.473900000000     0.378450000000     0.158300000000   
C      0.465650000000     0.398400000000     0.148400000000   
C      0.443500000000     0.411000000000     0.161000000000   
C      0.432750000000     0.400300000000     0.182750000000   
H      0.440100000000     0.386000000000     0.190100000000   
O      0.026100000000     0.121550000000     0.158300000000   
C      0.034350000000     0.101600000000     0.148400000000   
C      0.056500000000     0.089000000000     0.161000000000   
C      0.067250000000     0.099700000000     0.182750000000   
H      0.059900000000     0.114000000000     0.190100000000   
O      0.341700000000     0.378450000000     0.026100000000   
C      0.351600000000     0.398400000000     0.034350000000   
C      0.339000000000     0.411000000000     0.056500000000   
C      0.317250000000     0.400300000000     0.067250000000   
H      0.309900000000     0.386000000000     0.059900000000   
O      0.121550000000     0.341700000000     0.026100000000   
C      0.101600000000     0.351600000000     0.034350000000   
C      0.089000000000     0.339000000000     0.056500000000   
C      0.099700000000     0.317250000000     0.067250000000   
H      0.114000000000     0.309900000000     0.059900000000   
O      0.158300000000     0.121550000000     0.026100000000   
C      0.148400000000     0.101600000000     0.034350000000   
C      0.161000000000     0.089000000000     0.056500000000   
C      0.182750000000     0.099700000000     0.067250000000   
H      0.190100000000     0.114000000000     0.059900000000   
O      0.378450000000     0.158300000000     0.026100000000   
C      0.398400000000     0.148400000000     0.034350000000   
C      0.411000000000     0.161000000000     0.056500000000   
C      0.400300000000     0.182750000000     0.067250000000   
H      0.386000000000     0.190100000000     0.059900000000   
O      0.341700000000     0.121550000000     0.473900000000   
C      0.351600000000     0.101600000000     0.465650000000   
C      0.339000000000     0.089000000000     0.443500000000   
C      0.317250000000     0.099700000000     0.432750000000   
H      0.309900000000     0.114000000000     0.440100000000   
O      0.378450000000     0.341700000000     0.473900000000   
C      0.398400000000     0.351600000000     0.465650000000   
C      0.411000000000     0.339000000000     0.443500000000   
C      0.400300000000     0.317250000000     0.432750000000   
H      0.386000000000     0.309900000000     0.440100000000   
O      0.158300000000     0.378450000000     0.473900000000   
C      0.148400000000     0.398400000000     0.465650000000   
C      0.161000000000     0.411000000000     0.443500000000   
C      0.182750000000     0.400300000000     0.432750000000   
H      0.190100000000     0.386000000000     0.440100000000   
O      0.121550000000     0.158300000000     0.473900000000   
C      0.101600000000     0.148400000000     0.465650000000   
C      0.089000000000     0.161000000000     0.443500000000   
C      0.099700000000     0.182750000000     0.432750000000   
H      0.114000000000     0.190100000000     0.440100000000   
O      0.026100000000     0.341700000000     0.378450000000   
C      0.034350000000     0.351600000000     0.398400000000   
C      0.056500000000     0.339000000000     0.411000000000   
C      0.067250000000     0.317250000000     0.400300000000   
H      0.059900000000     0.309900000000     0.386000000000   
O      0.158300000000     0.026100000000     0.378450000000   
C      0.148400000000     0.034350000000     0.398400000000   
C      0.161000000000     0.056500000000     0.411000000000   
C      0.182750000000     0.067250000000     0.400300000000   
H      0.190100000000     0.059900000000     0.386000000000   
O      0.473900000000     0.158300000000     0.378450000000   
C      0.465650000000     0.148400000000     0.398400000000   
C      0.443500000000     0.161000000000     0.411000000000   
C      0.432750000000     0.182750000000     0.400300000000   
H      0.440100000000     0.190100000000     0.386000000000   
O      0.341700000000     0.473900000000     0.378450000000   
C      0.351600000000     0.465650000000     0.398400000000   
C      0.339000000000     0.443500000000     0.411000000000   
C      0.317250000000     0.432750000000     0.400300000000   
H      0.309900000000     0.440100000000     0.386000000000   
O      0.026100000000     0.158300000000     0.121550000000   
C      0.034350000000     0.148400000000     0.101600000000   
C      0.056500000000     0.161000000000     0.089000000000   
C      0.067250000000     0.182750000000     0.099700000000   
H      0.059900000000     0.190100000000     0.114000000000   
O      0.341700000000     0.026100000000     0.121550000000   
C      0.351600000000     0.034350000000     0.101600000000   
C      0.339000000000     0.056500000000     0.089000000000   
C      0.317250000000     0.067250000000     0.099700000000   
H      0.309900000000     0.059900000000     0.114000000000   
O      0.473900000000     0.341700000000     0.121550000000   
C      0.465650000000     0.351600000000     0.101600000000   
C      0.443500000000     0.339000000000     0.089000000000   
C      0.432750000000     0.317250000000     0.099700000000   
H      0.440100000000     0.309900000000     0.114000000000   
O      0.158300000000     0.473900000000     0.121550000000   
C      0.148400000000     0.465650000000     0.101600000000   
C      0.161000000000     0.443500000000     0.089000000000   
C      0.182750000000     0.432750000000     0.099700000000   
H      0.190100000000     0.440100000000     0.114000000000   
O      0.378450000000     0.026100000000     0.341700000000   
C      0.398400000000     0.034350000000     0.351600000000   
C      0.411000000000     0.056500000000     0.339000000000   
C      0.400300000000     0.067250000000     0.317250000000   
H      0.386000000000     0.059900000000     0.309900000000   
O      0.378450000000     0.473900000000     0.158300000000   
C      0.398400000000     0.465650000000     0.148400000000   
C      0.411000000000     0.443500000000     0.161000000000   
C      0.400300000000     0.432750000000     0.182750000000   
H      0.386000000000     0.440100000000     0.190100000000   
O      0.026100000000     0.378450000000     0.158300000000   
C      0.034350000000     0.398400000000     0.148400000000   
C      0.056500000000     0.411000000000     0.161000000000   
C      0.067250000000     0.400300000000     0.182750000000   
H      0.059900000000     0.386000000000     0.190100000000   
O      0.121550000000     0.026100000000     0.158300000000   
C      0.101600000000     0.034350000000     0.148400000000   
C      0.089000000000     0.056500000000     0.161000000000   
C      0.099700000000     0.067250000000     0.182750000000   
H      0.114000000000     0.059900000000     0.190100000000   
O      0.473900000000     0.121550000000     0.158300000000   
C      0.465650000000     0.101600000000     0.148400000000   
C      0.443500000000     0.089000000000     0.161000000000   
C      0.432750000000     0.099700000000     0.182750000000   
H      0.440100000000     0.114000000000     0.190100000000   
O      0.121550000000     0.473900000000     0.341700000000   
C      0.101600000000     0.465650000000     0.351600000000   
C      0.089000000000     0.443500000000     0.339000000000   
C      0.099700000000     0.432750000000     0.317250000000   
H      0.114000000000     0.440100000000     0.309900000000   
O      0.026100000000     0.121550000000     0.341700000000   
C      0.034350000000     0.101600000000     0.351600000000   
C      0.056500000000     0.089000000000     0.339000000000   
C      0.067250000000     0.099700000000     0.317250000000   
H      0.059900000000     0.114000000000     0.309900000000   
O      0.473900000000     0.378450000000     0.341700000000   
C      0.465650000000     0.398400000000     0.351600000000   
C      0.443500000000     0.411000000000     0.339000000000   
C      0.432750000000     0.400300000000     0.317250000000   
H      0.440100000000     0.386000000000     0.309900000000   
Cu     0.142650000000     0.392650000000     0.250000000000   
O      0.158300000000     0.371550000000     0.223900000000   
C      0.148400000000     0.351600000000     0.215650000000   
C      0.161000000000     0.339000000000     0.193500000000   
C      0.182750000000     0.349700000000     0.182750000000   
H      0.190100000000     0.364000000000     0.190100000000   
Cu     0.357350000000     0.392650000000     0.250000000000   
O      0.378450000000     0.408300000000     0.223900000000   
C      0.398400000000     0.398400000000     0.215650000000   
C      0.411000000000     0.411000000000     0.193500000000   
Cu     0.357350000000     0.107350000000     0.250000000000   
O      0.341700000000     0.128450000000     0.223900000000   
C      0.351600000000     0.148400000000     0.215650000000   
C      0.339000000000     0.161000000000     0.193500000000   
C      0.317250000000     0.150300000000     0.182750000000   
H      0.309900000000     0.136000000000     0.190100000000   
Cu     0.142650000000     0.107350000000     0.250000000000   
O      0.121550000000     0.091700000000     0.223900000000   
C      0.101600000000     0.101600000000     0.215650000000   
C      0.089000000000     0.089000000000     0.193500000000   
O      0.158300000000     0.128450000000     0.276100000000   
C      0.148400000000     0.148400000000     0.284350000000   
C      0.161000000000     0.161000000000     0.306500000000   
C      0.182750000000     0.150300000000     0.317250000000   
H      0.190100000000     0.136000000000     0.309900000000   
O      0.121550000000     0.408300000000     0.276100000000   
C      0.101600000000     0.398400000000     0.284350000000   
C      0.089000000000     0.411000000000     0.306500000000   
O      0.341700000000     0.371550000000     0.276100000000   
C      0.351600000000     0.351600000000     0.284350000000   
C      0.339000000000     0.339000000000     0.306500000000   
C      0.317250000000     0.349700000000     0.317250000000   
H      0.309900000000     0.364000000000     0.309900000000   
O      0.378450000000     0.091700000000     0.276100000000   
C      0.398400000000     0.101600000000     0.284350000000   
C      0.411000000000     0.089000000000     0.306500000000   
Cu     0.000000000000     0.392650000000     0.392650000000   
O      0.473900000000     0.408300000000     0.371550000000   
C      0.432750000000     0.432750000000     0.349700000000   
H      0.440100000000     0.440100000000     0.364000000000   
Cu     0.357350000000     0.250000000000     0.392650000000   
O      0.341700000000     0.223900000000     0.371550000000   
C      0.351600000000     0.215650000000     0.351600000000   
C      0.339000000000     0.193500000000     0.339000000000   
C      0.317250000000     0.182750000000     0.349700000000   
H      0.309900000000     0.190100000000     0.364000000000   
Cu     0.000000000000     0.107350000000     0.392650000000   
O      0.026100000000     0.091700000000     0.371550000000   
C      0.067250000000     0.067250000000     0.349700000000   
H      0.059900000000     0.059900000000     0.364000000000   
Cu     0.142650000000     0.250000000000     0.392650000000   
O      0.158300000000     0.276100000000     0.371550000000   
C      0.148400000000     0.284350000000     0.351600000000   
C      0.161000000000     0.306500000000     0.339000000000   
C      0.182750000000     0.317250000000     0.349700000000   
H      0.190100000000     0.309900000000     0.364000000000   
Cu     0.000000000000     0.107350000000     0.107350000000   
O      0.473900000000     0.091700000000     0.128450000000   
C      0.432750000000     0.067250000000     0.150300000000   
H      0.440100000000     0.059900000000     0.136000000000   
Cu     0.142650000000     0.250000000000     0.107350000000   
O      0.158300000000     0.223900000000     0.128450000000   
C      0.148400000000     0.215650000000     0.148400000000   
C      0.161000000000     0.193500000000     0.161000000000   
C      0.182750000000     0.182750000000     0.150300000000   
H      0.190100000000     0.190100000000     0.136000000000   
Cu     0.000000000000     0.392650000000     0.107350000000   
O      0.026100000000     0.408300000000     0.128450000000   
C      0.067250000000     0.432750000000     0.150300000000   
H      0.059900000000     0.440100000000     0.136000000000   
Cu     0.357350000000     0.250000000000     0.107350000000   
O      0.341700000000     0.276100000000     0.128450000000   
C      0.351600000000     0.284350000000     0.148400000000   
C      0.339000000000     0.306500000000     0.161000000000   
C      0.317250000000     0.317250000000     0.150300000000   
H      0.309900000000     0.309900000000     0.136000000000   
O      0.121550000000     0.223900000000     0.408300000000   
C      0.101600000000     0.215650000000     0.398400000000   
C      0.089000000000     0.193500000000     0.411000000000   
O      0.121550000000     0.276100000000     0.091700000000   
C      0.101600000000     0.284350000000     0.101600000000   
C      0.089000000000     0.306500000000     0.089000000000   
O      0.473900000000     0.371550000000     0.091700000000   
C      0.432750000000     0.349700000000     0.067250000000   
H      0.440100000000     0.364000000000     0.059900000000   
O      0.378450000000     0.223900000000     0.091700000000   
C      0.398400000000     0.215650000000     0.101600000000   
C      0.411000000000     0.193500000000     0.089000000000   
O      0.026100000000     0.128450000000     0.091700000000   
C      0.067250000000     0.150300000000     0.067250000000   
H      0.059900000000     0.136000000000     0.059900000000   
O      0.378450000000     0.276100000000     0.408300000000   
C      0.398400000000     0.284350000000     0.398400000000   
C      0.411000000000     0.306500000000     0.411000000000   
O      0.473900000000     0.128450000000     0.408300000000   
C      0.432750000000     0.150300000000     0.432750000000   
H      0.440100000000     0.136000000000     0.440100000000   
O      0.026100000000     0.371550000000     0.408300000000   
C      0.067250000000     0.349700000000     0.432750000000   
H      0.059900000000     0.364000000000     0.440100000000   
O      0.341700000000     0.128450000000     0.276100000000   
C      0.351600000000     0.148400000000     0.284350000000   
C      0.339000000000     0.161000000000     0.306500000000   
C      0.317250000000     0.150300000000     0.317250000000   
H      0.309900000000     0.136000000000     0.309900000000   
O      0.121550000000     0.091700000000     0.276100000000   
C      0.101600000000     0.101600000000     0.284350000000   
C      0.089000000000     0.089000000000     0.306500000000   
O      0.158300000000     0.371550000000     0.276100000000   
C      0.148400000000     0.351600000000     0.284350000000   
C      0.161000000000     0.339000000000     0.306500000000   
C      0.182750000000     0.349700000000     0.317250000000   
H      0.190100000000     0.364000000000     0.309900000000   
O      0.378450000000     0.408300000000     0.276100000000   
C      0.398400000000     0.398400000000     0.284350000000   
C      0.411000000000     0.411000000000     0.306500000000   
O      0.341700000000     0.371550000000     0.223900000000   
C      0.351600000000     0.351600000000     0.215650000000   
C      0.339000000000     0.339000000000     0.193500000000   
C      0.317250000000     0.349700000000     0.182750000000   
H      0.309900000000     0.364000000000     0.190100000000   
O      0.378450000000     0.091700000000     0.223900000000   
C      0.398400000000     0.101600000000     0.215650000000   
C      0.411000000000     0.089000000000     0.193500000000   
O      0.158300000000     0.128450000000     0.223900000000   
C      0.148400000000     0.148400000000     0.215650000000   
C      0.161000000000     0.161000000000     0.193500000000   
C      0.182750000000     0.150300000000     0.182750000000   
H      0.190100000000     0.136000000000     0.190100000000   
O      0.121550000000     0.408300000000     0.223900000000   
C      0.101600000000     0.398400000000     0.215650000000   
C      0.089000000000     0.411000000000     0.193500000000   
O      0.026100000000     0.091700000000     0.128450000000   
C      0.067250000000     0.067250000000     0.150300000000   
H      0.059900000000     0.059900000000     0.136000000000   
O      0.158300000000     0.276100000000     0.128450000000   
C      0.148400000000     0.284350000000     0.148400000000   
C      0.161000000000     0.306500000000     0.161000000000   
C      0.182750000000     0.317250000000     0.150300000000   
H      0.190100000000     0.309900000000     0.136000000000   
O      0.473900000000     0.408300000000     0.128450000000   
C      0.432750000000     0.432750000000     0.150300000000   
H      0.440100000000     0.440100000000     0.136000000000   
O      0.341700000000     0.223900000000     0.128450000000   
C      0.351600000000     0.215650000000     0.148400000000   
C      0.339000000000     0.193500000000     0.161000000000   
C      0.317250000000     0.182750000000     0.150300000000   
H      0.309900000000     0.190100000000     0.136000000000   
O      0.026100000000     0.408300000000     0.371550000000   
C      0.067250000000     0.432750000000     0.349700000000   
H      0.059900000000     0.440100000000     0.364000000000   
O      0.341700000000     0.276100000000     0.371550000000   
C      0.351600000000     0.284350000000     0.351600000000   
C      0.339000000000     0.306500000000     0.339000000000   
C      0.317250000000     0.317250000000     0.349700000000   
H      0.309900000000     0.309900000000     0.364000000000   
O      0.473900000000     0.091700000000     0.371550000000   
C      0.432750000000     0.067250000000     0.349700000000   
H      0.440100000000     0.059900000000     0.364000000000   
O      0.158300000000     0.223900000000     0.371550000000   
C      0.148400000000     0.215650000000     0.351600000000   
C      0.161000000000     0.193500000000     0.339000000000   
C      0.182750000000     0.182750000000     0.349700000000   
H      0.190100000000     0.190100000000     0.364000000000   
O      0.378450000000     0.276100000000     0.091700000000   
C      0.398400000000     0.284350000000     0.101600000000   
C      0.411000000000     0.306500000000     0.089000000000   
O      0.378450000000     0.223900000000     0.408300000000   
C      0.398400000000     0.215650000000     0.398400000000   
C      0.411000000000     0.193500000000     0.411000000000   
O      0.026100000000     0.128450000000     0.408300000000   
C      0.067250000000     0.150300000000     0.432750000000   
H      0.059900000000     0.136000000000     0.440100000000   
O      0.121550000000     0.276100000000     0.408300000000   
C      0.101600000000     0.284350000000     0.398400000000   
C      0.089000000000     0.306500000000     0.411000000000   
O      0.473900000000     0.371550000000     0.408300000000   
C      0.432750000000     0.349700000000     0.432750000000   
H      0.440100000000     0.364000000000     0.440100000000   
O      0.121550000000     0.223900000000     0.091700000000   
C      0.101600000000     0.215650000000     0.101600000000   
C      0.089000000000     0.193500000000     0.089000000000   
O      0.026100000000     0.371550000000     0.091700000000   
C      0.067250000000     0.349700000000     0.067250000000   
H      0.059900000000     0.364000000000     0.059900000000   
O      0.473900000000     0.128450000000     0.091700000000   
C      0.432750000000     0.150300000000     0.067250000000   
H      0.440100000000     0.136000000000     0.059900000000   
Cu     0.392650000000     0.142650000000     0.250000000000   
O      0.408300000000     0.121550000000     0.223900000000   
Cu     0.107350000000     0.142650000000     0.250000000000   
O      0.128450000000     0.158300000000     0.223900000000   
C      0.150300000000     0.182750000000     0.182750000000   
H      0.136000000000     0.190100000000     0.190100000000   
Cu     0.107350000000     0.357350000000     0.250000000000   
O      0.091700000000     0.378450000000     0.223900000000   
Cu     0.392650000000     0.357350000000     0.250000000000   
O      0.371550000000     0.341700000000     0.223900000000   
C      0.349700000000     0.317250000000     0.182750000000   
H      0.364000000000     0.309900000000     0.190100000000   
O      0.408300000000     0.378450000000     0.276100000000   
O      0.371550000000     0.158300000000     0.276100000000   
C      0.349700000000     0.182750000000     0.317250000000   
H      0.364000000000     0.190100000000     0.309900000000   
O      0.091700000000     0.121550000000     0.276100000000   
O      0.128450000000     0.341700000000     0.276100000000   
C      0.150300000000     0.317250000000     0.317250000000   
H      0.136000000000     0.309900000000     0.309900000000   
Cu     0.250000000000     0.142650000000     0.392650000000   
O      0.223900000000     0.158300000000     0.371550000000   
C      0.215650000000     0.148400000000     0.351600000000   
C      0.193500000000     0.161000000000     0.339000000000   
Cu     0.107350000000     0.000000000000     0.392650000000   
O      0.091700000000     0.473900000000     0.371550000000   
Cu     0.250000000000     0.357350000000     0.392650000000   
O      0.276100000000     0.341700000000     0.371550000000   
C      0.284350000000     0.351600000000     0.351600000000   
C      0.306500000000     0.339000000000     0.339000000000   
Cu     0.392650000000     0.000000000000     0.392650000000   
O      0.408300000000     0.026100000000     0.371550000000   